<number of tasks>
20


<number of equipment>
5


<cycle time>
1000


<investment costs>
1,8457
2,8642
3,9605
4,26224
5,26210


<task times>
1,-1,280,258,-1,113
2,-1,169,266,-1,81
3,-1,292,279,-1,130
4,290,-1,260,88,-1
5,-1,266,253,-1,97
6,176,-1,-1,-1,81
7,-1,221,144,-1,77
8,278,-1,196,116,-1
9,287,-1,184,100,-1
10,-1,215,160,-1,83
11,309,-1,288,208,-1
12,274,-1,267,91,-1
13,205,-1,-1,-1,100
14,209,-1,-1,-1,138
15,-1,271,256,-1,116
16,-1,257,260,-1,116
17,-1,181,193,-1,97
18,-1,248,277,-1,94
19,260,-1,200,94,-1
20,257,-1,235,94,-1


<precedence relations>
1,11
2,11
3,11
4,8
4,9
5,6
5,7
5,10
6,11
7,12
11,13
11,14
11,15
11,16
11,18
12,17
12,19
14,20


<task types>
1,3
2,3
3,3
4,2
5,3
6,1
7,3
8,2
9,2
10,3
11,2
12,2
13,1
14,1
15,3
16,3
17,3
18,3
19,2
20,2


<line depot>
1,4
2,2
3,2
4,0
5,1


<processing costs>
1,14400
2,7200
3,14400
4,7200
5,14400


<saving costs>
1,845
2,864
3,960
4,2622
5,2621


<end>
